s td 12 29 40
b 1 1 3 5 7 9 11 12 13 14 15 16 17 19 21 22 23 24 25 27 28 29 30 31 32 33 35 38 39 40
b 2 3 4 5 7 9 11 12 13 14 15 16 17 19 21 22 24 27 28 29 30 31 32 33 35 38 39 40
b 3 3 4 5 7 9 11 12 13 14 16 17 19 21 22 24 26 27 28 29 30 31 32 33 35 39 40
b 4 2 3 5 9 11 13 14 16 17 19 21 24 26 27 28 29 30 31 32 33 35 39 40
b 5 2 9 11 13 14 16 17 21 26 27 28 30 33 37 39 40
b 6 1 3 5 6 7 9 11 13 14 15 16 17 19 21 23 24 25 27 28 29 30 31 32 33 38 39 40
b 7 1 3 5 6 7 8 9 11 13 14 15 16 17 19 23 24 25 27 28 29 31 32 33 38 39 40
b 8 1 3 5 6 7 8 10 13 16 17 19 25 28 29 31 32 38 39
b 9 1 13 14 17 18 21 25 28 29 30 32 35 40
b 10 3 5 7 9 11 12 13 14 15 16 17 19 21 22 23 24 25 27 28 29 31 32 33 34 35 38 39 40
b 11 3 7 9 11 12 13 14 15 16 17 19 20 21 22 23 24 25 27 28 29 31 32 33 34 35 38 40
b 12 3 7 9 11 12 20 21 23 25 27 28 32 33 36 38 40
1 2
1 6
1 9
1 10
2 3
3 4
4 5
6 7
7 8
10 11
11 12
